33021
1 0 1 1 1 1 1 1 0 1 1 1 1 1 1 0 1 0 1 0 1 0 0 1 1 1 0 1 1 1 
18 6 2 27 2 12 2 27 18 28 4 28 13 13 28 18 3 20 27 0 18 16 5 24 10 18 27 14 29 2 6 4 4 16 27 6 20 9 24 16 18 9 6 4 20 4 13 2 14 14 24 16 24 16 20 6 11 9 18 7 29 0 7 20 13 11 5 14 28 25 18 12 6 9 23 23 20 23 20 16 10 0 9 25 29 13 6 5 27 7 28 6 25 25 2 3 11 6 0 28 28 16 25 18 4 0 4 24 27 3 14 4 27 12 12 20 28 7 14 20 9 11 28 6 9 16 2 11 4 0 28 24 25 20 23 9 3 3 28 10 12 27 11 11 25 5 24 16 27 25 24 0 23 0 20 11 2 16 3 13 13 27 10 24 5 27 5 4 3 2 5 20 28 14 4 2 0 10 29 10 5 16 2 6 12 9 28 23 0 24 2 2 6 4 7 12 7 2 10 6 